scip/reoptimization/build/mas76.lp
\ SCIP STATISTICS
\   Problem name     : mas76
\   Variables        : 101 (150 binary, 0 integer, 0 implicit integer, 1 continuous)
\   Constraints      : 12
\   Obj. scale       : 1
\   Obj. offset      : 0
Minimize
 Obj: +1e-05 x1 +1e-05 x2 +1e-05 x3 +1e-05 x4 +1e-05 x5 +1e-05 x6 +1e-05 x7 +1e-05 x8 +1e-05 x9
      +1e-05 x10 +1e-05 x11 +1e-05 x12 +1e-05 x13 +1e-05 x14 +1e-05 x15 +1e-05 x16 +1e-05 x17 +1e-05 x18
      +1e-05 x19 +1e-05 x20 +1e-05 x21 +1e-05 x22 +1e-05 x23 +1e-05 x24 +1e-05 x25 +1e-05 x26 +1e-05 x27
      +1e-05 x28 +1e-05 x29 +1e-05 x30 +1e-05 x31 +1e-05 x32 +1e-05 x33 +1e-05 x34 +1e-05 x35 +1e-05 x36
      +1e-05 x37 +1e-05 x38 +1e-05 x39 +1e-05 x40 +1e-05 x41 +1e-05 x42 +1e-05 x43 +1e-05 x44 +1e-05 x45
      +1e-05 x46 +1e-05 x47 +1e-05 x48 +1e-05 x49 +1e-05 x50 +1e-05 x51 +1e-05 x52 +1e-05 x53 +1e-05 x54
      +1e-05 x55 +1e-05 x56 +1e-05 x57 +1e-05 x58 +1e-05 x59 +1e-05 x60 +1e-05 x61 +1e-05 x62 +1e-05 x63
      +1e-05 x64 +1e-05 x65 +1e-05 x66 +1e-05 x67 +1e-05 x68 +1e-05 x69 +1e-05 x70 +1e-05 x71 +1e-05 x72
      +1e-05 x73 +1e-05 x74 +1e-05 x75 +1e-05 x76 +1e-05 x77 +1e-05 x78 +1e-05 x79 +1e-05 x80 +1e-05 x81
      +1e-05 x82 +1e-05 x83 +1e-05 x84 +1e-05 x85 +1e-05 x86 +1e-05 x87 +1e-05 x88 +1e-05 x89 +1e-05 x90
      +1e-05 x91 +1e-05 x92 +1e-05 x93 +1e-05 x94 +1e-05 x95 +1e-05 x96 +1e-05 x97 +1e-05 x98 +1e-05 x99
      +1e-05 x100 +1 x101
Subject to
 c1: +1 x1 +1 x2 +1 x3 +1 x4 +1 x5 +1 x6 +1 x7 +1 x8 +1 x9 +1 x10 +1 x11 +1 x12 +1 x13 +1 x14 +1 x15 +1 x16
  +1 x17 +1 x18 +1 x19 +1 x20 +1 x21 +1 x22 +1 x23 +1 x24 +1 x25 +1 x26 +1 x27 +1 x28 +1 x29 +1 x30 +1 x31
  +1 x32 +1 x33 +1 x34 +1 x35 +1 x36 +1 x37 +1 x38 +1 x39 +1 x40 +1 x41 +1 x42 +1 x43 +1 x44 +1 x45 +1 x46
  +1 x47 +1 x48 +1 x49 +1 x50 +1 x51 +1 x52 +1 x53 +1 x54 +1 x55 +1 x56 +1 x57 +1 x58 +1 x59 +1 x60 +1 x61
  +1 x62 +1 x63 +1 x64 +1 x65 +1 x66 +1 x67 +1 x68 +1 x69 +1 x70 +1 x71 +1 x72 +1 x73 +1 x74 +1 x75 +1 x76
  +1 x77 +1 x78 +1 x79 +1 x80 +1 x81 +1 x82 +1 x83 +1 x84 +1 x85 +1 x86 +1 x87 +1 x88 +1 x89 +1 x90 +1 x91
  +1 x92 +1 x93 +1 x94 +1 x95 +1 x96 +1 x97 +1 x98 +1 x99 +1 x100 <= +15
 c2: +3857.5340376 x1 +125.76760563 x2 +7165.7769953 x3 +2876 x4 +9723 x5 +7310 x6 +1529 x7 +1585 x8 +2949 x9
  +7097 x10 +1239 x11 +6449 x12 +4596.07277 x13 +8037 x14 +7123 x15 +8067 x16 +5704 x17 +1582 x18 +8713 x19
  +9232 x20 +3371 x21 +2637 x22 +7131 x23 +418.3028169 x24 +3647 x25 +5688.4859155 x26 +7832.5997653 x27
  +4409.1255869 x28 +1053 x29 +2869 x30 +5410 x31 +3948 x32 +6049 x33 +9317 x34 +6880 x35 +3779 x36 +3641 x37
  +5567 x38 +2197 x39 +2842 x40 +4846 x41 +4616 x42 +8807 x43 +3261 x44 +3553 x45 +5239 x46 +6665 x47
  +3257.4906103 x48 +7219.556338 x49 +2536 x50 +8013 x51 +3541 x52 +8080 x53 +5593.0586854 x54 +5036 x55
  +1782 x56 +3895 x57 +4205 x58 +7772 x59 +9326 x60 +4757 x61 +5355 x62 +1919 x63 +7510.5774648 x64 +7341 x65
  +8541 x66 +8352 x67 +3291 x68 +7328 x69 +4506 x70 +4429 x71 +4593 x72 +9138 x73 +3731.7664319 x74 +5124.2922535 x75
  +4378 x76 +3647 x77 +3795 x78 +2912 x79 +8830 x80 +5445 x81 +6112 x83 +8841 x84 +1236 x85 +7010 x86
  +2909 x87 +7622 x88 +7393 x89 +8317.6971831 x90 +1950 x91 +4654 x92 +2255 x93 +7104 x94 +7534.7887324 x95
  +2054 x96 +6682 x97 +3234 x98 +2842 x99 +3974 x100 +1 x101 >= +157344.61033
 c3: +4264 x1 +5339 x2 +5997.5298448 x3 +2876 x4 +7310 x6 +1529 x7 +1585 x8 +2949 x9 +4194.6948608 x10
  +1239 x11 +9402 x12 +8025 x13 +8037 x14 +7123 x15 +4956.3455567 x16 +5704 x17 +1582 x18 +4450.6085385 x21
  +2637 x22 +2834.0627677 x23 +6800.7326017 x24 +3647 x25 +5067.3705835 x26 +9897 x27 +5880 x28 +1053 x29
  +2869 x30 +5410 x31 +3948 x32 +6049 x33 +6880 x35 +3779 x36 +3641 x37 +4989.1615364 x38 +2197 x39 +2842 x40
  +4846 x41 +4616 x42 +3261 x44 +3553 x45 +5239 x46 +6665 x47 +6513.6694995 x48 +6513.6694995 x49 +2536 x50
  +5762 x51 +3541 x52 +8080 x53 +6767 x54 +5036 x55 +1782 x56 +3895 x57 +4205 x58 +7772 x59 +4757 x61
  +5355 x62 +1919 x63 +7988.4333512 x64 +7341 x65 +8541 x66 +8352 x67 +3291 x68 +7328 x69 +4506 x70 +4429 x71
  +4593 x72 +6465.6610011 x74 +5806.8664347 x75 +4378 x76 +3647 x77 +1395.1358405 x78 +2912 x79 +5445 x81
  +6112 x83 +1236 x85 +7010 x86 +2909 x87 +7622 x88 +6594.385439 x89 +8830 x90 +1950 x91 +4654 x92 +2255 x93
  +7104 x94 +7744 x95 +2054 x96 +6682 x97 +3234 x98 +2842 x99 +3974 x100 +1 x101 >= +117845.82287
 c4: +4264 x1 +5339 x2 +4020 x3 +2876 x4 +7310 x6 +1529 x7 +1585 x8 +2949 x9 +7097 x10 +1239 x11 +5213 x12
  +5205.5725555 x13 +3447.1997813 x15 +5187.6249609 x16 +5704 x17 +1506.6047419 x18 +8713 x19 +9232 x20
  +4600 x21 +2637 x22 +3022.4184269 x23 +1444.7264377 x24 +3647 x25 +8494 x26 +4579 x28 +1053 x29 +2869 x30
  +5410 x31 +3948 x32 +6049 x33 +9317 x34 +179.5 x35 +3779 x36 +3641 x37 +5567 x38 +2197 x39 +2842 x40
  +4846 x41 +4616 x42 +8807 x43 +3261 x44 +3553 x45 +5239 x46 +6665 x47 +8172 x48 +8425 x49 +2536 x50
  +3541 x52 +4966.4377418 x54 +5036 x55 +1782 x56 +3895 x57 +4205 x58 +7772 x59 +6887.3290528 x60 +1337.1303919 x61
  +5355 x62 +1919 x63 +6185.1233268 x64 +7341 x65 +3291 x68 +7328 x69 +4506 x70 +4429 x71 +2038.6351681 x72
  +6121.179313 x73 +6197.801258 x74 +1698.801258 x75 +2279.4274445 x76 +3647 x77 +3795 x78 +2912 x79 +8830 x80
  +5445 x81 +4478.7723368 x83 +8841 x84 +1236 x85 +7010 x86 +2909 x87 +7622 x88 +1997.1997813 x89 +179.5 x91
  +4654 x92 +2255 x93 +7104 x94 +7744 x95 +2054 x96 +6682 x97 +3234 x98 +2842 x99 +3974 x100 +1 x101 >= +121387.97778
 c5: +4264 x1 +5339 x2 +2551.0705817 x3 +2876 x4 +9723 x5 +7310 x6 +1529 x7 +1585 x8 +2949 x9 +7097 x10
  +1239 x11 +5460.1237005 x12 +6988.5590257 x13 +8037 x14 +7123 x15 +8067 x16 +5704 x17 +1582 x18 +4132.4582009 x19
  +4035 x21 +2637 x22 +5161.2867944 x23 +4438.6399605 x24 +3647 x25 +4130.3600395 x26 +9897 x27 +5880 x28
  +1053 x29 +2869 x30 +4453 x31 +3948 x32 +6049 x33 +1950 x35 +3779 x36 +3641 x37 +5567 x38 +2197 x39
  +2842 x40 +4846 x41 +4616 x42 +8807 x43 +3261 x44 +3553 x45 +5239 x46 +6665 x47 +2536 x50 +5175.6917691 x51
  +3541 x52 +8080 x53 +2857.9555159 x54 +5036 x55 +1782 x56 +3895 x57 +4205 x58 +2548.0705817 x60 +1766.2736704 x61
  +5355 x62 +1919 x63 +7341 x65 +8352 x67 +3291 x68 +7328 x69 +4506 x70 +4429 x71 +4593 x72 +8484 x73
  +6175.543002 x74 +2921.3990893 x75 +4378 x76 +3647 x77 +3795 x78 +2912 x79 +2505.1281467 x80 +5445 x81
  +6112 x83 +8841 x84 +1236 x85 +7010 x86 +2909 x87 +6110.5626987 x89 +1950 x91 +4654 x92 +2255 x93 +7104 x94
  +2054 x96 +2501.4582009 x97 +3234 x98 +2842 x99 +3974 x100 +1 x101 >= +122529.5819
 c6: +4264 x1 +4264 x2 +7749 x3 +2876 x4 +9723 x5 +1529 x7 +1585 x8 +2949 x9 +5307.6683033 x10 +1239 x11
  +4623.3631424 x12 +5095.7938067 x13 +8037 x14 +7123 x15 +8067 x16 +5704 x17 +1582 x18 +6570.524825 x19
  +9232 x20 +4035 x21 +2637 x22 +5112.4181569 x23 +4376.4583031 x24 +3647 x25 +6202.6957438 x26 +5880 x28
  +1053 x29 +2869 x30 +5410 x31 +3948 x32 +6049 x33 +9317 x34 +6880 x35 +3779 x36 +3641 x37 +5567 x38
  +2197 x39 +2842 x40 +4846 x41 +4386.6285041 x42 +3261 x44 +3553 x45 +5239 x46 +6665 x47 +8172 x48 +8425 x49
  +2536 x50 +2922.0679176 x51 +922.71451306 x52 +8080 x53 +6767 x54 +5036 x55 +1782 x56 +3895 x57 +4205 x58
  +9326 x60 +5355 x62 +1919 x63 +5491.8578076 x64 +4655 x66 +3291 x68 +4506 x70 +4429 x71 +3783.7812896 x72
  +654.39121533 x75 +4378 x76 +3647 x77 +3795 x78 +2912 x79 +8830 x80 +5445 x81 +6112 x83 +8841 x84 +1236 x85
  +7010 x86 +2909 x87 +5966.6503463 x89 +4789.3781866 x90 +1950 x91 +4654 x92 +2255 x93 +7104 x94 +7744 x95
  +2054 x96 +3124.5817884 x97 +3234 x98 +654.39121533 x99 +3974 x100 +1 x101 >= +124193.83991
 c7: +4264 x1 +5339 x2 +5950 x3 +2876 x4 +9723 x5 +1529 x7 +1585 x8 +2949 x9 +3402.7992571 x10 +1239 x11
  +6449 x12 +3647 x13 +4517.0858346 x15 +5704 x17 +1582 x18 +7115.7257058 x19 +3371 x21 +2637 x22 +7131 x23
  +5896.5208271 x24 +3647 x25 +8494 x26 +379.40517583 x27 +5880 x28 +1053 x29 +2869 x30 +5410 x31 +3948 x32
  +6049 x33 +2814.2200099 x35 +3779 x36 +3641 x37 +5567 x38 +2197 x39 +2842 x40 +4846 x41 +4616 x42 +3261 x44
  +3553 x45 +5239 x46 +6665 x47 +5519.3776127 x48 +5519.3776127 x49 +2536 x50 +2679.7992571 x51 +3541 x52
  +5991.3240713 x54 +5036 x55 +1782 x56 +3895 x57 +4205 x58 +7772 x59 +9326 x60 +5355 x62 +1919 x63 +6851.4383853 x64
  +8541 x66 +8352 x67 +3291 x68 +4506 x70 +4429 x71 +2671.1703318 x72 +4071.8888806 x73 +5999.3406637 x74
  +3781.9888063 x75 +3647 x77 +3795 x78 +2912 x79 +8830 x80 +5445 x81 +6112 x83 +1236 x85 +2909 x87 +7622 x88
  +6281.3502229 x89 +4764.2200099 x90 +1950 x91 +4654 x92 +2255 x93 +2054 x96 +6682 x97 +3234 x98 +2706.9888063 x99
  +3974 x100 +1 x101 >= +110802.52457
 c8: +4264 x1 +2349.7029047 x2 +5954.3061901 x3 +2876 x4 +9723 x5 +7310 x6 +1529 x7 +1585 x8 +2949 x9
  +7097 x10 +1239 x11 +6019.7713621 x12 +8025 x13 +7123 x15 +8067 x16 +5704 x17 +1582 x18 +8713 x19 +9232 x20
  +4600 x21 +2637 x22 +7131 x23 +4486.3993937 x24 +3647 x25 +5761.3993937 x26 +3143.4143401 x27 +4322.1433305 x28
  +1053 x29 +2869 x30 +5410 x31 +3948 x32 +6049 x33 +4666.1862662 x35 +3779 x36 +3641 x37 +5353 x38 +2197 x39
  +2842 x40 +4846 x41 +4616 x42 +8807 x43 +3261 x44 +3553 x45 +5239 x46 +6665 x47 +8172 x48 +8425 x49
  +2536 x50 +8013 x51 +3541 x52 +8080 x53 +6767 x54 +5036 x55 +1782 x56 +3895 x57 +4205 x58 +6995.3832487 x59
  +9326 x60 +1936 x61 +5355 x62 +1919 x63 +7066.1811901 x64 +7341 x65 +4655 x66 +8352 x67 +3291 x68 +7328 x69
  +4506 x70 +4429 x71 +4593 x72 +2081.7976241 x73 +3545.8932953 x74 +5202.9097575 x75 +4378 x76 +3647 x77
  +3795 x78 +2912 x79 +5445 x81 +6112 x83 +1236 x85 +2909 x87 +5757.7289904 x90 +1950 x91 +4654 x92 +2255 x93
  +7744 x95 +2054 x96 +1810.9409546 x97 +3234 x98 +1339.329068 x99 +3974 x100 +1 x101 >= +112419.0906
 c9: +4264 x1 +3717.0066721 x2 +3906 x3 +2876 x4 +7630.8567538 x5 +7310 x6 +1529 x7 +1585 x8 +2949 x9
  +3993.4803922 x10 +1239 x11 +996.84041394 x13 +8037 x14 +5704 x17 +1582 x18 +7955.7135076 x19 +9232 x20
  +4600 x21 +2637 x22 +6771.8233932 x23 +425.53118192 x24 +3647 x25 +2913.3760893 x26 +2587.7352941 x27
  +3416.7352941 x28 +1053 x29 +2869 x30 +1867.9586057 x31 +3948 x32 +6049 x33 +6880 x35 +3779 x36 +3641 x37
  +5567 x38 +2197 x39 +2842 x40 +4846 x41 +4616 x42 +8807 x43 +3261 x44 +3553 x45 +5239 x46 +8172 x48
  +4380.7073802 x49 +2536 x50 +5333.267293 x51 +3541 x52 +8080 x53 +3547.4434913 x54 +5036 x55 +1782 x56
  +769.38126362 x57 +4205 x58 +1374.3269336 x61 +5355 x62 +1919 x63 +1296.5245098 x64 +8541 x66 +8352 x67
  +3291 x68 +7328 x69 +4506 x70 +4429 x71 +758.29711329 x72 +2184.2401961 x73 +4236.1090686 x74 +5406.1224129 x75
  +4378 x76 +3647 x77 +3795 x78 +2912 x79 +40.55787037 x80 +5445 x81 +6112 x83 +8841 x84 +1236 x85 +2909 x87
  +7622 x88 +7393 x89 +8830 x90 +1950 x91 +4654 x92 +2255 x93 +7104 x94 +5858.9893791 x95 +2054 x96 +6682 x97
  +3234 x98 +2842 x99 +3974 x100 +1 x101 >= +123188
Bounds
 0 <= x1 <= 1
 0 <= x2 <= 1
 0 <= x3 <= 1
 0 <= x4 <= 1
 0 <= x5 <= 1
 0 <= x6 <= 1
 0 <= x7 <= 1
 0 <= x8 <= 1
 0 <= x9 <= 1
 0 <= x10 <= 1
 0 <= x11 <= 1
 0 <= x12 <= 1
 0 <= x13 <= 1
 0 <= x14 <= 1
 0 <= x15 <= 1
 0 <= x16 <= 1
 0 <= x17 <= 1
 0 <= x18 <= 1
 0 <= x19 <= 1
 0 <= x20 <= 1
 0 <= x21 <= 1
 0 <= x22 <= 1
 0 <= x23 <= 1
 0 <= x24 <= 1
 0 <= x25 <= 1
 0 <= x26 <= 1
 0 <= x27 <= 1
 0 <= x28 <= 1
 0 <= x29 <= 1
 0 <= x30 <= 1
 0 <= x31 <= 1
 0 <= x32 <= 1
 0 <= x33 <= 1
 0 <= x34 <= 1
 0 <= x35 <= 1
 0 <= x36 <= 1
 0 <= x37 <= 1
 0 <= x38 <= 1
 0 <= x39 <= 1
 0 <= x40 <= 1
 0 <= x41 <= 1
 0 <= x42 <= 1
 0 <= x43 <= 1
 0 <= x44 <= 1
 0 <= x45 <= 1
 0 <= x46 <= 1
 0 <= x47 <= 1
 0 <= x48 <= 1
 0 <= x49 <= 1
 0 <= x50 <= 1
 0 <= x51 <= 1
 0 <= x52 <= 1
 0 <= x53 <= 1
 0 <= x54 <= 1
 0 <= x55 <= 1
 0 <= x56 <= 1
 0 <= x57 <= 1
 0 <= x58 <= 1
 0 <= x59 <= 1
 0 <= x60 <= 1
 0 <= x61 <= 1
 0 <= x62 <= 1
 0 <= x63 <= 1
 0 <= x64 <= 1
 0 <= x65 <= 1
 0 <= x66 <= 1
 0 <= x67 <= 1
 0 <= x68 <= 1
 0 <= x69 <= 1
 0 <= x70 <= 1
 0 <= x71 <= 1
 0 <= x72 <= 1
 0 <= x73 <= 1
 0 <= x74 <= 1
 0 <= x75 <= 1
 0 <= x76 <= 1
 0 <= x77 <= 1
 0 <= x78 <= 1
 0 <= x79 <= 1
 0 <= x80 <= 1
 0 <= x81 <= 1
 0 <= x82 <= 1
 0 <= x83 <= 1
 0 <= x84 <= 1
 0 <= x85 <= 1
 0 <= x86 <= 1
 0 <= x87 <= 1
 0 <= x88 <= 1
 0 <= x89 <= 1
 0 <= x90 <= 1
 0 <= x91 <= 1
 0 <= x92 <= 1
 0 <= x93 <= 1
 0 <= x94 <= 1
 0 <= x95 <= 1
 0 <= x96 <= 1
 0 <= x97 <= 1
 0 <= x98 <= 1
 0 <= x99 <= 1
 0 <= x100 <= 1
 0 <= x101 <= 1000000000000
Binaries
 x1 x2 x3 x4 x5 x6 x7 x8 x9 x10 x11 x12 x13 x14 x15 x16 x17 x18 x19 x20 x21 x22 x23 x24 x25 x26 x27
 x28 x29 x30 x31 x32 x33 x34 x35 x36 x37 x38 x39 x40 x41 x42 x43 x44 x45 x46 x47 x48 x49 x50 x51 x52 x53
 x54 x55 x56 x57 x58 x59 x60 x61 x62 x63 x64 x65 x66 x67 x68 x69 x70 x71 x72 x73 x74 x75 x76 x77 x78 x79
 x80 x81 x82 x83 x84 x85 x86 x87 x88 x89 x90 x91 x92 x93 x94 x95 x96 x97 x98 x99 x100
End
